NAME : random_2
COMMENT : 40 random nodes
TYPE : TSP
DIMENSION : 40
EDGE_WEIGHT_TYPE : EUC_2D
NODE_COORD_SECTION
1 612 151
2 792 437
3 139 790
4 656 143
5 783 16
6 276 577
7 488 302
8 152 966
9 93 984
10 907 806
11 301 608
12 201 194
13 623 52
14 103 337
15 97 984
16 752 486
17 586 414
18 592 425
19 302 467
20 916 558
21 635 569
22 402 134
23 988 449
24 748 341
25 155 23
26 183 755
27 329 756
28 525 526
29 966 227
30 590 166
31 423 697
32 176 820
33 727 100
34 880 915
35 219 675
36 999 472
37 72 976
38 517 818
39 315 289
40 707 733
EOF